150
2
62, 28, 50, 98, 12, 31, 55, 24, 36, 89, 14, 19, 93, 13, 90, 32, 68, 97, 94, 46, 93, 22, 31, 69, 97, 64, 89, 79, 7, 40, 89, 70
37, 58, 36, 39, 74, 14, 28, 79, 37, 85, 39, 60, 63, 13, 14, 45, 52, 73, 38, 44, 58, 46, 25, 70, 31, 32, 42, 74, 53, 49, 63, 70
2, 1, 2, 1, 1, 2, 1, 2, 2, 1, 1, 1, 2, 1, 1, 2, 1, 2, 2, 2, 1, 2, 1, 2, 2, 2, 1, 2, 2, 1, 2, 1